0 36 
1 36 
2 34 
3 38 
4 37 
5 35 
6 35 
7 34 
8 32 
9 31 
10 34 
11 32 
12 32 
13 29 
14 27 
15 28 
16 27 
17 27 
18 31 
19 29 
20 28 
21 29 
22 29 
23 29 
24 26 
25 25 
26 24 
27 22 
28 22 
29 21 
30 18 
31 15 
32 15 
33 14 
34 15 
35 16 
36 15 
37 14 
38 13 
39 13 
40 12 
41 10 
42 9 
43 9 
44 8 
45 9 
46 8 
47 6 
48 4 
49 2 
50 2 
51 1 
52 0 
53 0 

